10J3M/DAT/10J3MUNR-5.dat
10 3
9.5567 32.994
12.3311 40.9853
9.9339 8.3484
39.0294 49.5028
42.2695 37.3896
39.273 27.0286
9.3262 19.2292
13.7667 27.2548
43.4591 48.551
33.1025 46.7088
337.9925