10J3M/SOL/10J3MUNR-5.sol
solution status: optimal solution found
objective value:                              40.3923
x#1#3                                               1 	(obj:0)
x#2#1                                               1 	(obj:0)
x#3#1                                               1 	(obj:0)
x#4#3                                               1 	(obj:0)
x#5#1                                               1 	(obj:0)
x#6#3                                               1 	(obj:0)
x#7#2                                               1 	(obj:0)
x#8#1                               0.545142385553651 	(obj:0)
x#8#2                               0.454857614446349 	(obj:0)
x#9#2                               0.811850932270156 	(obj:0)
x#9#3                               0.188149067729844 	(obj:0)
x#10#1                                              1 	(obj:0)
z                                             40.3923 	(obj:1)
